%%MatrixMarket matrix coordinate integer general
955 989 1260
1 1 2
2 2 2
3 3 2
4 4 2
233 4 1
475 4 1
639 4 1
700 4 1
5 5 2
6 6 2
7 7 2
8 8 2
387 8 1
9 9 2
659 9 1
10 10 2
629 10 1
11 11 2
697 11 1
12 12 2
144 12 1
175 12 1
176 12 1
194 12 1
265 12 1
379 12 1
444 12 1
462 12 1
536 12 1
565 12 1
584 12 1
664 12 1
760 12 1
857 12 1
920 12 1
933 12 1
13 13 2
44 13 1
14 14 2
15 15 2
16 16 2
17 17 2
674 17 1
17 18 2
305 18 1
18 19 1
19 20 1
20 21 1
21 22 1
713 22 1
22 23 1
147 23 1
732 23 1
861 23 1
23 24 1
173 24 1
324 24 1
462 24 1
24 25 1
112 25 1
17 26 1
25 26 1
52 26 1
73 26 1
138 26 1
143 26 1
433 26 1
630 26 1
686 26 1
762 26 1
769 26 1
26 27 1
551 27 1
27 28 1
28 29 1
121 29 1
371 29 1
29 30 1
30 31 1
31 32 1
32 33 1
33 34 1
34 35 1
55 35 1
291 35 1
475 35 1
504 35 1
534 35 1
682 35 1
35 36 1
35 37 1
36 38 1
37 39 1
759 39 1
38 40 1
39 41 1
40 42 1
457 42 1
41 43 1
42 44 1
42 45 1
43 46 1
45 47 1
46 48 1
47 49 1
48 50 1
48 51 1
49 52 1
49 53 1
50 54 1
51 55 1
427 55 1
51 56 1
51 57 1
51 58 1
371 58 1
52 59 1
53 60 1
67 60 1
761 60 1
53 61 1
148 61 1
54 62 1
56 63 1
57 64 1
58 65 1
58 66 1
59 67 1
59 68 1
60 69 1
61 70 1
62 71 1
63 72 1
408 72 1
660 72 1
64 73 1
826 73 1
65 74 1
66 75 1
68 76 1
69 77 1
768 77 1
70 78 1
70 79 1
71 80 1
72 81 1
17 82 1
72 82 1
442 82 1
462 82 1
74 83 1
74 84 1
798 84 1
936 84 1
74 85 1
466 85 1
75 86 1
321 86 1
76 87 1
77 88 1
157 88 1
462 88 1
78 89 1
590 89 1
78 90 1
542 90 1
558 90 1
79 91 1
475 91 1
80 92 1
146 92 1
212 92 1
226 92 1
381 92 1
470 92 1
680 92 1
726 92 1
760 92 1
764 92 1
778 92 1
905 92 1
81 93 1
82 94 1
926 94 1
83 95 1
84 96 1
179 96 1
797 96 1
868 96 1
902 96 1
85 97 1
199 97 1
86 98 1
87 99 1
88 100 1
661 100 1
89 101 1
90 102 1
90 103 1
90 104 1
91 105 1
94 105 1
92 106 1
93 107 1
595 107 1
887 107 1
95 108 1
96 109 1
97 110 1
672 110 1
856 110 1
98 111 1
99 112 1
874 112 1
99 113 1
100 114 1
101 115 1
102 116 1
103 117 1
696 117 1
900 117 1
104 118 1
105 119 1
106 120 1
107 121 1
108 122 1
108 123 1
109 124 1
110 125 1
111 126 1
283 126 1
462 126 1
492 126 1
935 126 1
112 127 1
113 128 1
114 129 1
115 130 1
116 131 1
824 131 1
117 132 1
118 133 1
119 134 1
135 134 1
609 134 1
712 134 1
120 135 1
122 136 1
204 136 1
349 136 1
123 137 1
124 138 1
900 138 1
909 138 1
125 139 1
126 140 1
127 141 1
128 142 1
129 143 1
130 144 1
295 144 1
482 144 1
529 144 1
809 144 1
898 144 1
131 145 1
132 146 1
133 147 1
694 147 1
875 147 1
134 148 1
580 148 1
729 148 1
135 149 1
135 150 1
136 151 1
137 152 1
137 153 1
530 153 1
705 153 1
137 154 1
137 155 1
567 155 1
137 156 1
137 157 1
909 157 1
137 158 1
137 159 1
139 160 1
140 161 1
141 162 1
559 162 1
756 162 1
142 163 1
145 164 1
145 165 1
149 166 1
150 167 1
151 168 1
152 169 1
152 170 1
153 171 1
154 172 1
154 173 1
154 174 1
155 175 1
155 176 1
156 177 1
157 178 1
158 179 1
159 180 1
160 181 1
160 182 1
392 182 1
161 183 1
162 184 1
163 185 1
164 186 1
164 187 1
17 188 1
165 188 1
943 188 1
166 189 1
167 190 1
168 191 1
168 192 1
169 193 1
170 194 1
171 195 1
172 196 1
461 196 1
701 196 1
173 197 1
173 198 1
174 199 1
177 200 1
733 200 1
178 201 1
180 202 1
181 203 1
182 204 1
182 205 1
390 205 1
183 206 1
184 207 1
185 208 1
642 208 1
683 208 1
900 208 1
186 209 1
187 210 1
188 211 1
189 212 1
190 213 1
240 213 1
646 213 1
190 214 1
334 214 1
191 215 1
192 216 1
193 217 1
195 218 1
196 219 1
197 220 1
931 220 1
198 221 1
198 222 1
200 223 1
350 223 1
201 224 1
202 225 1
203 226 1
205 227 1
699 227 1
206 228 1
207 229 1
208 230 1
209 231 1
210 232 1
211 233 1
213 234 1
214 235 1
215 236 1
216 237 1
828 237 1
17 238 1
217 238 1
307 238 1
413 238 1
867 238 1
878 238 1
218 239 1
219 240 1
220 241 1
221 242 1
222 243 1
223 244 1
224 245 1
491 245 1
225 246 1
227 247 1
263 247 1
431 247 1
228 248 1
740 248 1
229 249 1
229 250 1
230 251 1
230 252 1
231 253 1
232 254 1
232 255 1
234 256 1
235 257 1
236 258 1
237 259 1
312 259 1
237 260 1
420 260 1
238 261 1
239 262 1
429 262 1
240 263 1
241 264 1
242 265 1
243 266 1
588 266 1
244 267 1
245 268 1
246 269 1
247 270 1
248 271 1
249 272 1
250 273 1
251 274 1
252 275 1
439 275 1
571 275 1
790 275 1
823 275 1
253 276 1
254 277 1
255 278 1
255 279 1
256 280 1
257 281 1
258 282 1
259 283 1
260 284 1
261 285 1
262 286 1
860 286 1
264 287 1
266 288 1
267 289 1
268 290 1
269 291 1
270 292 1
397 292 1
474 292 1
271 293 1
272 294 1
273 295 1
274 296 1
275 297 1
291 297 1
275 298 1
494 298 1
275 299 1
669 299 1
276 300 1
277 301 1
278 302 1
279 303 1
279 304 1
280 305 1
281 306 1
577 306 1
282 307 1
284 308 1
589 308 1
594 308 1
285 309 1
286 310 1
287 311 1
288 312 1
289 313 1
290 314 1
290 315 1
290 316 1
292 317 1
293 318 1
294 319 1
296 320 1
297 321 1
298 322 1
299 323 1
766 323 1
299 324 1
300 325 1
301 326 1
763 326 1
301 327 1
892 327 1
932 327 1
302 328 1
303 329 1
303 330 1
304 331 1
306 332 1
308 333 1
656 333 1
309 334 1
310 335 1
311 336 1
313 337 1
364 337 1
806 337 1
314 338 1
315 339 1
316 340 1
317 341 1
318 342 1
319 343 1
320 344 1
728 344 1
736 344 1
751 344 1
321 345 1
692 345 1
864 345 1
322 346 1
323 347 1
325 348 1
326 349 1
327 350 1
328 351 1
329 352 1
330 353 1
331 354 1
331 355 1
332 356 1
658 356 1
333 357 1
335 358 1
406 358 1
336 359 1
337 360 1
338 361 1
338 362 1
339 363 1
340 364 1
341 365 1
342 366 1
665 366 1
343 367 1
344 368 1
663 368 1
345 369 1
346 370 1
775 370 1
347 371 1
348 372 1
351 373 1
352 374 1
352 375 1
352 376 1
353 377 1
354 378 1
442 378 1
488 378 1
708 378 1
749 378 1
355 379 1
789 379 1
356 380 1
357 381 1
358 382 1
359 383 1
360 384 1
361 385 1
362 386 1
362 387 1
362 388 1
466 388 1
509 388 1
363 389 1
365 390 1
366 391 1
366 392 1
367 393 1
473 393 1
367 394 1
923 394 1
368 395 1
369 396 1
370 397 1
371 398 1
371 399 1
371 400 1
371 401 1
371 402 1
372 403 1
373 404 1
374 405 1
375 406 1
376 407 1
377 408 1
666 408 1
827 408 1
378 409 1
456 409 1
838 409 1
846 409 1
378 410 1
378 411 1
379 412 1
379 413 1
594 413 1
380 414 1
380 415 1
380 416 1
381 417 1
381 418 1
381 419 1
381 420 1
382 421 1
383 422 1
717 422 1
383 423 1
384 424 1
774 424 1
385 425 1
386 426 1
387 427 1
387 428 1
387 429 1
388 430 1
389 431 1
389 432 1
391 433 1
393 434 1
393 435 1
394 435 1
394 436 1
395 437 1
396 438 1
398 439 1
399 440 1
399 441 1
400 442 1
401 443 1
583 443 1
401 444 1
602 444 1
864 444 1
402 445 1
403 446 1
404 447 1
405 448 1
407 449 1
409 450 1
466 450 1
410 451 1
411 452 1
901 452 1
412 453 1
767 453 1
414 454 1
537 454 1
415 455 1
416 456 1
417 457 1
418 458 1
595 458 1
737 458 1
930 458 1
419 459 1
421 460 1
421 461 1
421 462 1
904 462 1
422 463 1
422 464 1
423 465 1
424 466 1
425 467 1
426 468 1
428 469 1
430 470 1
432 471 1
433 472 1
462 472 1
433 473 1
434 474 1
435 475 1
436 476 1
436 477 1
437 478 1
438 479 1
440 480 1
441 481 1
625 481 1
443 482 1
445 483 1
446 484 1
447 485 1
447 486 1
448 487 1
449 488 1
450 489 1
451 490 1
452 491 1
453 492 1
464 492 1
454 493 1
455 494 1
458 495 1
459 496 1
460 497 1
461 498 1
461 499 1
461 500 1
462 501 1
462 502 1
462 503 1
462 504 1
462 505 1
462 506 1
463 507 1
464 508 1
465 509 1
466 510 1
466 511 1
467 512 1
468 513 1
469 514 1
471 515 1
471 516 1
471 517 1
471 518 1
471 519 1
494 519 1
839 519 1
930 519 1
472 520 1
598 520 1
472 521 1
475 522 1
553 522 1
475 523 1
476 524 1
477 525 1
478 526 1
479 527 1
480 528 1
481 529 1
482 530 1
483 531 1
484 532 1
485 533 1
486 534 1
487 535 1
492 535 1
668 535 1
489 536 1
490 537 1
492 538 1
492 539 1
493 540 1
494 541 1
494 542 1
495 543 1
881 543 1
495 544 1
496 545 1
497 546 1
498 547 1
499 548 1
499 549 1
499 550 1
500 551 1
501 552 1
513 552 1
543 552 1
677 552 1
502 553 1
503 554 1
503 555 1
555 555 1
636 555 1
863 555 1
504 556 1
504 557 1
626 557 1
951 557 1
505 558 1
506 559 1
507 560 1
508 561 1
508 562 1
509 563 1
509 564 1
509 565 1
510 566 1
510 567 1
511 567 1
560 567 1
853 567 1
512 568 1
897 568 1
514 569 1
515 570 1
516 571 1
517 572 1
919 572 1
518 573 1
519 574 1
519 575 1
519 576 1
520 577 1
520 578 1
520 579 1
520 580 1
521 581 1
522 582 1
523 583 1
524 584 1
524 585 1
524 586 1
7 587 1
765 587 1
7 588 1
7 589 1
525 590 1
526 591 1
527 592 1
528 593 1
531 594 1
532 595 1
533 596 1
535 597 1
538 598 1
539 599 1
540 600 1
541 601 1
650 601 1
542 602 1
544 603 1
545 604 1
545 605 1
546 606 1
546 607 1
693 607 1
547 608 1
548 609 1
549 610 1
549 611 1
550 612 1
552 613 1
554 614 1
556 615 1
557 616 1
685 616 1
561 617 1
562 618 1
563 619 1
564 620 1
566 621 1
568 622 1
841 622 1
910 622 1
569 623 1
570 624 1
572 625 1
573 626 1
573 627 1
574 628 1
575 629 1
576 630 1
576 631 1
589 631 1
577 632 1
577 633 1
577 634 1
577 635 1
577 636 1
577 637 1
578 638 1
579 639 1
581 640 1
582 641 1
582 642 1
585 643 1
586 644 1
587 645 1
589 646 1
11 647 1
591 647 1
592 648 1
603 648 1
885 648 1
592 649 1
593 650 1
595 651 1
595 652 1
595 653 1
595 654 1
595 655 1
595 656 1
595 657 1
949 657 1
595 658 1
595 659 1
595 660 1
884 660 1
596 661 1
596 662 1
597 663 1
599 664 1
600 665 1
601 666 1
602 667 1
604 668 1
605 669 1
606 670 1
607 671 1
608 672 1
610 673 1
611 674 1
612 675 1
857 675 1
613 676 1
614 677 1
615 678 1
616 679 1
617 680 1
618 681 1
619 682 1
921 682 1
620 683 1
621 684 1
622 685 1
623 686 1
623 687 1
623 688 1
624 689 1
625 690 1
654 690 1
625 691 1
627 692 1
628 693 1
11 694 1
631 695 1
952 695 1
632 696 1
633 697 1
634 698 1
635 699 1
636 700 1
637 701 1
638 702 1
640 703 1
641 704 1
643 705 1
644 706 1
645 707 1
646 708 1
647 709 1
647 710 1
648 711 1
649 712 1
651 713 1
652 714 1
653 715 1
655 716 1
657 717 1
657 718 1
657 719 1
662 720 1
666 721 1
667 722 1
670 723 1
671 724 1
673 725 1
675 726 1
676 727 1
678 728 1
678 729 1
679 730 1
680 731 1
681 732 1
681 733 1
684 734 1
686 735 1
687 736 1
688 737 1
689 738 1
690 739 1
691 740 1
693 741 1
693 742 1
693 743 1
695 744 1
698 745 1
702 746 1
703 747 1
704 748 1
706 749 1
707 750 1
709 751 1
710 752 1
711 753 1
713 754 1
714 755 1
715 756 1
722 756 1
716 757 1
718 758 1
719 759 1
720 760 1
721 761 1
17 762 1
723 762 1
724 763 1
725 764 1
727 765 1
729 766 1
730 767 1
731 768 1
733 769 1
733 770 1
734 771 1
735 772 1
736 773 1
737 774 1
737 775 1
738 776 1
739 777 1
739 778 1
739 779 1
741 780 1
741 781 1
742 782 1
743 783 1
744 784 1
744 785 1
745 786 1
746 787 1
747 788 1
748 789 1
749 790 1
750 791 1
751 792 1
752 793 1
753 794 1
754 795 1
755 796 1
757 797 1
758 798 1
770 799 1
788 799 1
771 800 1
772 801 1
773 802 1
774 803 1
776 804 1
777 805 1
778 806 1
779 807 1
780 808 1
781 809 1
781 810 1
782 811 1
783 812 1
784 813 1
785 814 1
786 815 1
787 816 1
791 817 1
792 818 1
793 819 1
794 820 1
795 821 1
795 822 1
796 823 1
798 824 1
798 825 1
798 826 1
799 827 1
802 827 1
800 828 1
801 829 1
803 830 1
804 831 1
804 832 1
805 833 1
807 834 1
924 834 1
808 835 1
808 836 1
810 837 1
811 838 1
812 839 1
813 840 1
814 841 1
815 842 1
816 842 1
817 843 1
818 844 1
819 845 1
820 846 1
821 847 1
822 848 1
823 849 1
825 850 1
829 851 1
830 852 1
831 853 1
832 854 1
833 855 1
834 856 1
835 857 1
836 858 1
837 859 1
838 860 1
838 861 1
917 861 1
839 862 1
840 863 1
842 864 1
843 865 1
844 866 1
845 867 1
845 868 1
845 869 1
846 870 1
846 871 1
847 872 1
847 873 1
848 874 1
849 875 1
850 876 1
851 877 1
852 878 1
854 879 1
909 879 1
854 880 1
854 881 1
855 882 1
856 883 1
857 884 1
857 885 1
857 886 1
858 887 1
859 888 1
860 889 1
860 890 1
887 890 1
861 891 1
862 892 1
864 893 1
864 894 1
864 895 1
864 896 1
864 897 1
864 898 1
864 899 1
864 900 1
865 901 1
866 902 1
869 903 1
870 904 1
871 905 1
871 906 1
871 907 1
900 907 1
872 908 1
873 909 1
876 910 1
877 911 1
877 912 1
877 913 1
879 914 1
880 915 1
882 916 1
882 917 1
883 918 1
886 919 1
887 920 1
887 921 1
923 921 1
887 922 1
888 923 1
889 924 1
890 925 1
891 926 1
893 927 1
894 928 1
895 929 1
896 930 1
899 931 1
900 932 1
901 933 1
901 934 1
903 935 1
906 936 1
907 937 1
907 938 1
907 939 1
907 940 1
908 941 1
909 942 1
910 943 1
911 944 1
912 945 1
913 946 1
914 947 1
915 948 1
916 949 1
917 950 1
918 951 1
922 952 1
923 953 1
923 954 1
925 955 1
926 956 1
927 957 1
928 958 1
929 959 1
929 960 1
17 961 1
17 962 1
17 963 1
17 964 1
17 965 1
17 966 1
17 967 1
17 968 1
17 969 1
934 970 1
935 971 1
937 972 1
938 973 1
939 974 1
940 975 1
941 976 1
942 977 1
944 978 1
945 979 1
946 980 1
946 981 1
947 982 1
948 983 1
948 984 1
950 985 1
950 986 1
953 987 1
954 988 1
955 989 1
